c ind 10 109 11 112 122 125 135 138 14 148 0
c ind 15 151 161 164 174 177 18 187 190 20 0
c ind 200 203 21 213 216 226 229 247 250 253 0
c ind 281 283 285 287 289 291 293 295 297 299 0
c ind 301 303 305 307 309 311 326 328 330 332 0
c ind 334 336 338 340 395 41 44 48 51 57 0
c ind 6 60 7 70 73 83 86 96 99 0
p cnf 397 1126
-1 -2 16 0
-1 2 394 0
-100 85 0
-100 87 0
-101 102 105 0
-102 103 104 0
-103 83 0
-103 84 0
-104 84 0
-104 88 0
-105 83 0
-105 88 0
-106 -107 21 0
-106 -21 107 0
-107 -108 -114 0
-107 108 114 0
-108 -109 -110 0
-108 109 110 0
-110 -111 -113 0
-110 111 113 0
-111 -112 0
-113 100 0
-113 98 0
-114 115 118 0
-115 116 117 0
-116 96 0
-116 97 0
-117 101 0
-117 97 0
-118 101 0
-118 96 0
-119 -120 21 0
-119 -21 120 0
-12 -13 0
-120 -121 -127 0
-120 121 127 0
-121 -122 -123 0
-121 122 123 0
-123 -124 -126 0
-123 124 126 0
-124 -125 0
-126 111 0
-126 113 0
-127 128 131 0
-128 129 130 0
-129 109 0
-129 110 0
-13 -14 15 0
-13 -15 14 0
-130 110 0
-130 114 0
-131 109 0
-131 114 0
-132 -133 21 0
-132 -21 133 0
-133 -134 -140 0
-133 134 140 0
-134 -135 -136 0
-134 135 136 0
-136 -137 -139 0
-136 137 139 0
-137 -138 0
-139 124 0
-139 126 0
-140 141 144 0
-141 142 143 0
-142 122 0
-142 123 0
-143 123 0
-143 127 0
-144 122 0
-144 127 0
-145 -146 21 0
-145 -21 146 0
-146 -147 -153 0
-146 147 153 0
-147 -148 -149 0
-147 148 149 0
-149 -150 -152 0
-149 150 152 0
-150 -151 0
-152 137 0
-152 139 0
-153 154 157 0
-154 155 156 0
-155 135 0
-155 136 0
-156 136 0
-156 140 0
-157 135 0
-157 140 0
-158 -159 21 0
-158 -21 159 0
-159 -160 -166 0
-159 160 166 0
-16 -17 19 0
-16 17 22 0
-160 -161 -162 0
-160 161 162 0
-162 -163 -165 0
-162 163 165 0
-163 -164 0
-165 150 0
-165 152 0
-166 167 170 0
-167 168 169 0
-168 148 0
-168 149 0
-169 149 0
-169 153 0
-17 -14 18 0
-17 -18 14 0
-170 148 0
-170 153 0
-171 -172 21 0
-171 -21 172 0
-172 -173 -179 0
-172 173 179 0
-173 -174 -175 0
-173 174 175 0
-175 -176 -178 0
-175 176 178 0
-176 -177 0
-178 163 0
-178 165 0
-179 180 183 0
-180 181 182 0
-181 161 0
-181 162 0
-182 162 0
-182 166 0
-183 161 0
-183 166 0
-184 -185 21 0
-184 -21 185 0
-185 -186 -192 0
-185 186 192 0
-186 -187 -188 0
-186 187 188 0
-188 -189 -191 0
-188 189 191 0
-189 -190 0
-19 -20 21 0
-19 -21 20 0
-191 176 0
-191 178 0
-192 193 196 0
-193 194 195 0
-194 174 0
-194 175 0
-195 175 0
-195 179 0
-196 174 0
-196 179 0
-197 -198 21 0
-197 -21 198 0
-198 -199 -205 0
-198 199 205 0
-199 -200 -201 0
-199 200 201 0
-2 3 12 0
-201 -202 -204 0
-201 202 204 0
-202 -203 0
-204 189 0
-204 191 0
-205 206 209 0
-206 207 208 0
-207 187 0
-207 188 0
-208 188 0
-208 192 0
-209 187 0
-209 192 0
-21 0
-210 -21 211 0
-210 -211 21 0
-211 -212 -218 0
-211 212 218 0
-212 -213 -214 0
-212 213 214 0
-214 -215 -217 0
-214 215 217 0
-215 -216 0
-217 202 0
-217 204 0
-218 219 222 0
-219 220 221 0
-22 -23 19 0
-22 23 236 0
-220 200 0
-220 201 0
-221 201 0
-221 205 0
-222 200 0
-222 205 0
-223 -21 224 0
-223 -224 21 0
-224 -225 -231 0
-224 225 231 0
-225 -226 -227 0
-225 226 227 0
-227 -228 -230 0
-227 228 230 0
-228 -229 0
-23 223 0
-23 24 0
-230 215 0
-230 217 0
-231 232 235 0
-232 233 234 0
-233 213 0
-233 214 0
-234 214 0
-234 218 0
-235 213 0
-235 218 0
-236 -237 239 0
-236 237 394 0
-237 238 0
-237 8 0
-238 -10 18 0
-238 -18 10 0
-239 -240 241 0
-239 240 396 0
-24 210 0
-24 25 0
-240 -21 6 0
-240 -6 21 0
-241 -242 19 0
-241 242 394 0
-242 -243 254 0
-242 243 341 0
-243 244 251 0
-244 245 248 0
-245 -246 0
-246 -247 7 0
-246 -7 247 0
-248 -249 0
-249 -11 250 0
-249 -250 11 0
-25 197 0
-25 26 0
-251 -252 0
-252 -15 253 0
-252 -253 15 0
-254 -255 256 0
-254 255 264 0
-255 -15 18 0
-255 -18 15 0
-256 257 0
-256 263 0
-257 258 0
-257 263 0
-258 259 0
-258 263 0
-259 260 0
-259 263 0
-26 184 0
-26 27 0
-260 261 0
-260 263 0
-261 262 0
-261 263 0
-262 263 0
-263 -18 21 0
-263 -21 18 0
-264 -265 256 0
-264 265 312 0
-265 266 0
-265 310 0
-266 267 0
-266 308 0
-267 268 0
-267 306 0
-268 269 0
-268 304 0
-269 270 0
-269 302 0
-27 171 0
-27 28 0
-270 271 0
-270 300 0
-271 272 0
-271 298 0
-272 273 0
-272 296 0
-273 274 0
-273 294 0
-274 275 0
-274 292 0
-275 276 0
-275 290 0
-276 277 0
-276 288 0
-277 278 0
-277 286 0
-278 279 0
-278 284 0
-279 280 0
-279 282 0
-28 158 0
-28 29 0
-280 -18 281 0
-280 -281 18 0
-282 -21 283 0
-282 -283 21 0
-284 -21 285 0
-284 -285 21 0
-286 -21 287 0
-286 -287 21 0
-288 -21 289 0
-288 -289 21 0
-29 145 0
-29 30 0
-290 -21 291 0
-290 -291 21 0
-292 -21 293 0
-292 -293 21 0
-294 -21 295 0
-294 -295 21 0
-296 -21 297 0
-296 -297 21 0
-298 -21 299 0
-298 -299 21 0
-3 4 8 0
-30 132 0
-30 31 0
-300 -21 301 0
-300 -301 21 0
-302 -21 303 0
-302 -303 21 0
-304 -21 305 0
-304 -305 21 0
-306 -21 307 0
-306 -307 21 0
-308 -21 309 0
-308 -309 21 0
-31 119 0
-31 32 0
-310 -21 311 0
-310 -311 21 0
-312 -313 315 0
-312 313 341 0
-313 248 0
-313 314 0
-314 -11 18 0
-314 -18 11 0
-315 -316 317 0
-315 316 317 0
-316 -21 7 0
-316 -7 21 0
-317 -318 341 0
-317 318 356 0
-318 319 0
-318 339 0
-319 320 0
-319 337 0
-32 106 0
-32 33 0
-320 321 0
-320 335 0
-321 322 0
-321 333 0
-322 323 0
-322 331 0
-323 324 0
-323 329 0
-324 325 0
-324 327 0
-325 -18 326 0
-325 -326 18 0
-327 -18 328 0
-327 -328 18 0
-329 -18 330 0
-329 -330 18 0
-33 34 0
-33 93 0
-331 -18 332 0
-331 -332 18 0
-333 -18 334 0
-333 -334 18 0
-335 -18 336 0
-335 -336 18 0
-337 -18 338 0
-337 -338 18 0
-339 -18 340 0
-339 -340 18 0
-34 35 0
-34 80 0
-341 342 0
-341 355 0
-342 343 0
-342 354 0
-343 344 0
-343 353 0
-344 345 0
-344 352 0
-345 346 0
-345 351 0
-346 347 0
-346 350 0
-347 348 0
-347 349 0
-348 -18 326 0
-348 -326 18 0
-349 -18 328 0
-349 -328 18 0
-35 36 0
-35 67 0
-350 -18 330 0
-350 -330 18 0
-351 -18 332 0
-351 -332 18 0
-352 -18 334 0
-352 -334 18 0
-353 -18 336 0
-353 -336 18 0
-354 -18 338 0
-354 -338 18 0
-355 -18 340 0
-355 -340 18 0
-356 357 0
-356 390 0
-357 358 0
-357 386 0
-358 359 0
-358 382 0
-359 360 0
-359 378 0
-36 37 0
-36 54 0
-360 361 0
-360 374 0
-361 362 0
-361 370 0
-362 363 0
-362 366 0
-363 -18 364 0
-363 -364 18 0
-364 -365 -21 0
-364 365 21 0
-365 -326 -18 0
-365 326 18 0
-366 -18 367 0
-366 -367 18 0
-367 -368 -369 0
-367 368 369 0
-368 -328 -21 0
-368 328 21 0
-369 326 21 0
-37 38 0
-37 45 0
-370 -18 371 0
-370 -371 18 0
-371 -372 -373 0
-371 372 373 0
-372 -330 -21 0
-372 330 21 0
-373 328 0
-373 369 0
-374 -18 375 0
-374 -375 18 0
-375 -376 -377 0
-375 376 377 0
-376 -332 -21 0
-376 332 21 0
-377 330 0
-377 373 0
-378 -18 379 0
-378 -379 18 0
-379 -380 -381 0
-379 380 381 0
-38 -18 39 0
-38 -39 18 0
-380 -334 -21 0
-380 334 21 0
-381 332 0
-381 377 0
-382 -18 383 0
-382 -383 18 0
-383 -384 -385 0
-383 384 385 0
-384 -336 -21 0
-384 336 21 0
-385 334 0
-385 381 0
-386 -18 387 0
-386 -387 18 0
-387 -388 -389 0
-387 388 389 0
-388 -338 -21 0
-388 338 21 0
-389 336 0
-389 385 0
-39 -40 -21 0
-39 40 21 0
-390 -18 391 0
-390 -391 18 0
-391 -392 -393 0
-391 392 393 0
-392 -340 -21 0
-392 340 21 0
-393 338 0
-393 389 0
-394 -20 395 0
-394 -395 20 0
-396 -242 397 0
-396 242 394 0
-397 -18 20 0
-397 -20 18 0
-4 -5 0
-40 -41 -42 0
-40 41 42 0
-42 -43 -18 0
-42 43 18 0
-43 -44 0
-45 -21 46 0
-45 -46 21 0
-46 -47 -53 0
-46 47 53 0
-47 -48 -49 0
-47 48 49 0
-49 -50 -52 0
-49 50 52 0
-5 -6 7 0
-5 -7 6 0
-50 -51 0
-52 18 0
-52 43 0
-53 41 0
-53 42 0
-54 -21 55 0
-54 -55 21 0
-55 -56 -62 0
-55 56 62 0
-56 -57 -58 0
-56 57 58 0
-58 -59 -61 0
-58 59 61 0
-59 -60 0
-61 50 0
-61 52 0
-62 63 66 0
-63 64 65 0
-64 48 0
-64 49 0
-65 49 0
-65 53 0
-66 48 0
-66 53 0
-67 -21 68 0
-67 -68 21 0
-68 -69 -75 0
-68 69 75 0
-69 -70 -71 0
-69 70 71 0
-71 -72 -74 0
-71 72 74 0
-72 -73 0
-74 59 0
-74 61 0
-75 76 79 0
-76 77 78 0
-77 57 0
-77 58 0
-78 58 0
-78 62 0
-79 57 0
-79 62 0
-8 -9 0
-80 -21 81 0
-80 -81 21 0
-81 -82 -88 0
-81 82 88 0
-82 -83 -84 0
-82 83 84 0
-84 -85 -87 0
-84 85 87 0
-85 -86 0
-87 72 0
-87 74 0
-88 89 92 0
-89 90 91 0
-9 -10 11 0
-9 -11 10 0
-90 70 0
-90 71 0
-91 71 0
-91 75 0
-92 70 0
-92 75 0
-93 -21 94 0
-93 -94 21 0
-94 -95 -101 0
-94 95 101 0
-95 -96 -97 0
-95 96 97 0
-97 -98 -100 0
-97 98 100 0
-98 -99 0
1 -16 -394 0
1 -2 -16 0
1 0
1 2 -394 0
100 -85 -87 0
101 -102 0
101 -105 0
102 -103 0
102 -104 0
103 -83 -84 0
104 -84 -88 0
105 -83 -88 0
106 -107 -21 0
106 107 21 0
107 -108 114 0
107 -114 108 0
108 -109 110 0
108 -110 109 0
110 -111 113 0
110 -113 111 0
111 112 0
113 -98 -100 0
114 -115 0
114 -118 0
115 -116 0
115 -117 0
116 -96 -97 0
117 -97 -101 0
118 -96 -101 0
119 -120 -21 0
119 120 21 0
12 13 0
120 -121 127 0
120 -127 121 0
121 -122 123 0
121 -123 122 0
123 -124 126 0
123 -126 124 0
124 125 0
126 -111 -113 0
127 -128 0
127 -131 0
128 -129 0
128 -130 0
129 -109 -110 0
13 -14 -15 0
13 14 15 0
130 -110 -114 0
131 -109 -114 0
132 -133 -21 0
132 133 21 0
133 -134 140 0
133 -140 134 0
134 -135 136 0
134 -136 135 0
136 -137 139 0
136 -139 137 0
137 138 0
139 -124 -126 0
140 -141 0
140 -144 0
141 -142 0
141 -143 0
142 -122 -123 0
143 -123 -127 0
144 -122 -127 0
145 -146 -21 0
145 146 21 0
146 -147 153 0
146 -153 147 0
147 -148 149 0
147 -149 148 0
149 -150 152 0
149 -152 150 0
150 151 0
152 -137 -139 0
153 -154 0
153 -157 0
154 -155 0
154 -156 0
155 -135 -136 0
156 -136 -140 0
157 -135 -140 0
158 -159 -21 0
158 159 21 0
159 -160 166 0
159 -166 160 0
16 -17 -19 0
16 -19 -22 0
16 17 -22 0
160 -161 162 0
160 -162 161 0
162 -163 165 0
162 -165 163 0
163 164 0
165 -150 -152 0
166 -167 0
166 -170 0
167 -168 0
167 -169 0
168 -148 -149 0
169 -149 -153 0
17 -14 -18 0
17 14 18 0
170 -148 -153 0
171 -172 -21 0
171 172 21 0
172 -173 179 0
172 -179 173 0
173 -174 175 0
173 -175 174 0
175 -176 178 0
175 -178 176 0
176 177 0
178 -163 -165 0
179 -180 0
179 -183 0
18 0
180 -181 0
180 -182 0
181 -161 -162 0
182 -162 -166 0
183 -161 -166 0
184 -185 -21 0
184 185 21 0
185 -186 192 0
185 -192 186 0
186 -187 188 0
186 -188 187 0
188 -189 191 0
188 -191 189 0
189 190 0
19 -20 -21 0
19 20 21 0
191 -176 -178 0
192 -193 0
192 -196 0
193 -194 0
193 -195 0
194 -174 -175 0
195 -175 -179 0
196 -174 -179 0
197 -198 -21 0
197 198 21 0
198 -199 205 0
198 -205 199 0
199 -200 201 0
199 -201 200 0
2 -12 0
2 -3 0
201 -202 204 0
201 -204 202 0
202 203 0
204 -189 -191 0
205 -206 0
205 -209 0
206 -207 0
206 -208 0
207 -187 -188 0
208 -188 -192 0
209 -187 -192 0
210 -211 -21 0
210 211 21 0
211 -212 218 0
211 -218 212 0
212 -213 214 0
212 -214 213 0
214 -215 217 0
214 -217 215 0
215 216 0
217 -202 -204 0
218 -219 0
218 -222 0
219 -220 0
219 -221 0
22 -19 -236 0
22 -23 -19 0
22 23 -236 0
220 -200 -201 0
221 -201 -205 0
222 -200 -205 0
223 -224 -21 0
223 224 21 0
224 -225 231 0
224 -231 225 0
225 -226 227 0
225 -227 226 0
227 -228 230 0
227 -230 228 0
228 229 0
23 -24 -223 0
230 -215 -217 0
231 -232 0
231 -235 0
232 -233 0
232 -234 0
233 -213 -214 0
234 -214 -218 0
235 -213 -218 0
236 -237 -239 0
236 -239 -394 0
236 237 -394 0
237 -8 -238 0
238 -10 -18 0
238 10 18 0
239 -240 -241 0
239 -241 -396 0
239 240 -396 0
24 -25 -210 0
240 -6 -21 0
240 6 21 0
241 -19 -394 0
241 -242 -19 0
241 242 -394 0
242 -243 -254 0
242 -254 -341 0
242 243 -341 0
243 -244 0
243 -251 0
244 -245 0
244 -248 0
245 246 0
246 -7 -247 0
246 7 247 0
248 249 0
249 -11 -250 0
249 11 250 0
25 -26 -197 0
251 252 0
252 -15 -253 0
252 15 253 0
254 -255 -256 0
254 -256 -264 0
254 255 -264 0
255 -15 -18 0
255 15 18 0
256 -257 -263 0
257 -258 -263 0
258 -259 -263 0
259 -260 -263 0
26 -27 -184 0
260 -261 -263 0
261 -262 -263 0
262 -263 -263 0
263 -18 -21 0
263 18 21 0
264 -256 -312 0
264 -265 -256 0
264 265 -312 0
265 -266 -310 0
266 -267 -308 0
267 -268 -306 0
268 -269 -304 0
269 -270 -302 0
27 -28 -171 0
270 -271 -300 0
271 -272 -298 0
272 -273 -296 0
273 -274 -294 0
274 -275 -292 0
275 -276 -290 0
276 -277 -288 0
277 -278 -286 0
278 -279 -284 0
279 -280 -282 0
28 -29 -158 0
280 -281 -18 0
280 281 18 0
282 -283 -21 0
282 283 21 0
284 -285 -21 0
284 285 21 0
286 -287 -21 0
286 287 21 0
288 -289 -21 0
288 289 21 0
29 -30 -145 0
290 -291 -21 0
290 291 21 0
292 -293 -21 0
292 293 21 0
294 -295 -21 0
294 295 21 0
296 -297 -21 0
296 297 21 0
298 -299 -21 0
298 299 21 0
3 -4 0
3 -8 0
30 -31 -132 0
300 -301 -21 0
300 301 21 0
302 -303 -21 0
302 303 21 0
304 -305 -21 0
304 305 21 0
306 -307 -21 0
306 307 21 0
308 -309 -21 0
308 309 21 0
31 -32 -119 0
310 -311 -21 0
310 311 21 0
312 -313 -315 0
312 -315 -341 0
312 313 -341 0
313 -248 -314 0
314 -11 -18 0
314 11 18 0
315 -316 -317 0
315 -317 -317 0
315 316 -317 0
316 -7 -21 0
316 7 21 0
317 -318 -341 0
317 -341 -356 0
317 318 -356 0
318 -319 -339 0
319 -320 -337 0
32 -33 -106 0
320 -321 -335 0
321 -322 -333 0
322 -323 -331 0
323 -324 -329 0
324 -325 -327 0
325 -326 -18 0
325 326 18 0
327 -328 -18 0
327 328 18 0
329 -330 -18 0
329 330 18 0
33 -34 -93 0
331 -332 -18 0
331 332 18 0
333 -334 -18 0
333 334 18 0
335 -336 -18 0
335 336 18 0
337 -338 -18 0
337 338 18 0
339 -340 -18 0
339 340 18 0
34 -35 -80 0
341 -342 -355 0
342 -343 -354 0
343 -344 -353 0
344 -345 -352 0
345 -346 -351 0
346 -347 -350 0
347 -348 -349 0
348 -18 -326 0
348 18 326 0
349 -18 -328 0
349 18 328 0
35 -36 -67 0
350 -18 -330 0
350 18 330 0
351 -18 -332 0
351 18 332 0
352 -18 -334 0
352 18 334 0
353 -18 -336 0
353 18 336 0
354 -18 -338 0
354 18 338 0
355 -18 -340 0
355 18 340 0
356 -357 -390 0
357 -358 -386 0
358 -359 -382 0
359 -360 -378 0
36 -37 -54 0
360 -361 -374 0
361 -362 -370 0
362 -363 -366 0
363 -18 -364 0
363 18 364 0
364 -21 365 0
364 -365 21 0
365 -18 326 0
365 -326 18 0
366 -18 -367 0
366 18 367 0
367 -368 369 0
367 -369 368 0
368 -21 328 0
368 -328 21 0
369 -21 0
369 -326 0
37 -38 -45 0
370 -18 -371 0
370 18 371 0
371 -372 373 0
371 -373 372 0
372 -21 330 0
372 -330 21 0
373 -328 -369 0
374 -18 -375 0
374 18 375 0
375 -376 377 0
375 -377 376 0
376 -21 332 0
376 -332 21 0
377 -330 -373 0
378 -18 -379 0
378 18 379 0
379 -380 381 0
379 -381 380 0
38 -39 -18 0
38 39 18 0
380 -21 334 0
380 -334 21 0
381 -332 -377 0
382 -18 -383 0
382 18 383 0
383 -384 385 0
383 -385 384 0
384 -21 336 0
384 -336 21 0
385 -334 -381 0
386 -18 -387 0
386 18 387 0
387 -388 389 0
387 -389 388 0
388 -21 338 0
388 -338 21 0
389 -336 -385 0
39 -21 40 0
39 -40 21 0
390 -18 -391 0
390 18 391 0
391 -392 393 0
391 -393 392 0
392 -21 340 0
392 -340 21 0
393 -338 -389 0
394 -20 -395 0
394 20 395 0
396 -242 -397 0
396 -397 -394 0
396 242 -394 0
397 -20 -18 0
397 20 18 0
4 5 0
40 -41 42 0
40 -42 41 0
42 -18 43 0
42 -43 18 0
43 44 0
45 -46 -21 0
45 46 21 0
46 -47 53 0
46 -53 47 0
47 -48 49 0
47 -49 48 0
49 -50 52 0
49 -52 50 0
5 -6 -7 0
5 6 7 0
50 51 0
52 -43 -18 0
53 -41 -42 0
54 -55 -21 0
54 55 21 0
55 -56 62 0
55 -62 56 0
56 -57 58 0
56 -58 57 0
58 -59 61 0
58 -61 59 0
59 60 0
61 -50 -52 0
62 -63 0
62 -66 0
63 -64 0
63 -65 0
64 -48 -49 0
65 -49 -53 0
66 -48 -53 0
67 -68 -21 0
67 68 21 0
68 -69 75 0
68 -75 69 0
69 -70 71 0
69 -71 70 0
71 -72 74 0
71 -74 72 0
72 73 0
74 -59 -61 0
75 -76 0
75 -79 0
76 -77 0
76 -78 0
77 -57 -58 0
78 -58 -62 0
79 -57 -62 0
8 9 0
80 -81 -21 0
80 81 21 0
81 -82 88 0
81 -88 82 0
82 -83 84 0
82 -84 83 0
84 -85 87 0
84 -87 85 0
85 86 0
87 -72 -74 0
88 -89 0
88 -92 0
89 -90 0
89 -91 0
9 -10 -11 0
9 10 11 0
90 -70 -71 0
91 -71 -75 0
92 -70 -75 0
93 -94 -21 0
93 94 21 0
94 -101 95 0
94 -95 101 0
95 -96 97 0
95 -97 96 0
97 -100 98 0
97 -98 100 0
98 99 0
